895832
1 34 10541
34 9 6355
9 20 5744
20 0 6578
0 10 8732
10 7 17581
7 14 26227
14 15 36816
15 2 71701
2 13 30026
13 16 42391
16 8 102410
8 5 47658
5 35 22446
35 6 11794
6 12 23211
12 27 6411
27 30 12751
30 29 10287
29 36 941
36 38 6534
38 24 4093
24 22 11530
22 37 7449
37 28 745
28 33 35284
33 11 39715
11 32 3967
32 25 15458
25 19 24941
19 31 24202
31 4 3290
4 23 63665
23 21 45980
21 3 23621
3 18 26533
18 39 13572
39 17 18404
17 26 12606
26 1 15288
